benchmark_instances/dzn_benchmark_instances/benchmark_instance_11-4.dzn
% Input: sequence of points
seq_points = [|4,1
              |5,1
              |6,1
              |7,1
              |5,2
              |6,2
              |9,3
              |1,4
              |3,4
              |8,4
              |9,4
              |10,4
              |3,5
              |5,5
              |8,5
              |10,5
              |1,6
              |2,6
              |3,6
              |5,6
              |6,6
              |10,6
              |2,7
              |3,7
              |5,7
              |6,7
              |7,7
              |9,7
              |1,8
              |2,8
              |6,8
              |7,8
              |8,8
              |9,8
              |10,8
              |1,9
              |7,9
              |8,9
              |9,9
              |2,10
              |7,10
              |9,10
              |4,0
              |5,0
              |6,0
              |7,0
              |11,0
              |11,3
              |11,4
              |11,8
              |11,9
              |11,11
              |0,9
              |0,10
              |0,11
              |0,0
             |];

num_points = 56;
