benchmark_instances/lp_benchmark_instances/benchmark_instance_11-4.lp
% Input: sequence of points
point(4,1).
point(5,1).
point(6,1).
point(7,1).
point(5,2).
point(6,2).
point(9,3).
point(1,4).
point(3,4).
point(8,4).
point(9,4).
point(10,4).
point(3,5).
point(5,5).
point(8,5).
point(10,5).
point(1,6).
point(2,6).
point(3,6).
point(5,6).
point(6,6).
point(10,6).
point(2,7).
point(3,7).
point(5,7).
point(6,7).
point(7,7).
point(9,7).
point(1,8).
point(2,8).
point(6,8).
point(7,8).
point(8,8).
point(9,8).
point(10,8).
point(1,9).
point(7,9).
point(8,9).
point(9,9).
point(2,10).
point(7,10).
point(9,10).
point(4,0).
point(5,0).
point(6,0).
point(7,0).
point(11,0).
point(11,3).
point(11,4).
point(11,8).
point(11,9).
point(11,11).
point(0,9).
point(0,10).
point(0,11).
point(0,0).
